GPU_version/outputs/c206.out
Total number of lines in the file: 110
Total number of nodes including depot: 101
Customer 1: (40, 50), Demand: 0, Time Window: [0, 3390], Service Time: 0
Customer 2: (52, 75), Demand: 10, Time Window: [213, 568], Service Time: 90
Customer 3: (45, 70), Demand: 30, Time Window: [22, 563], Service Time: 90
Customer 4: (62, 69), Demand: 10, Time Window: [1030, 1463], Service Time: 90
Customer 5: (60, 66), Demand: 10, Time Window: [1154, 1527], Service Time: 90
calling MST kernel
Post Processing Route
Post 2 opt Processing Route
2-opt between 24 and 25 improved cost from 1560.69 to 1550.95
Elapsed time: 0.659952 seconds
Final Route: 
Route #1: 93 5 10 8 21 
Route #2: 22 24 27 29 6 32 31 35 33 34 36 
Route #3: 39 38 37 
Route #4: 30 20 11 9 
Route #5: 25 
Route #6: 23 26 28 13 17 
Route #7: 18 19 15 16 14 12 
Route #8: 75 2 1 99 100 97 95 94 92 98 
Route #9: 7 3 4 89 91 88 86 84 83 82 87 96 
Route #10: 74 62 61 64 72 66 69 68 65 49 41 42 
Route #11: 45 46 44 
Route #12: 40 57 
Route #13: 55 54 59 58 
Route #14: 56 53 60 50 52 51 43 47 48 
Route #15: 63 67 77 78 81 
Route #16: 76 71 70 73 79 80 
Route #17: 85 90 
Route #18: Total Distance: 1560.69
Final route is valid
