outputs/c206.txt.out
filename: C206
Vehicles: 25, Capacity: 700
Total customers : 101
No of routes: 14
Route #1: 93 5 10 11 9
Route #2: 13 17
Route #3: 18 19 15 16 14 12 25
Route #4: 8 23 26 28 21
Route #5: 20 22 24 27 30 29 6 32 31 35 33 39 36 34
Route #6: 38 37
Route #7: 75 2 1 99 100 97 92 94 95 98 7 3 4 89 91 88 86 84 83 82 87 96
Route #8: 67 63 62 74 72 61 64 66 69 49 65 68 41 42
Route #9: 45 44 46
Route #10: 40 57
Route #11: 55 54 59 58 60
Route #12: 53 56 51 50 52 47 43 48 78 77
Route #13: 85 81
Route #14: 76 71 70 73 79 80 90
Cost 1397
